;; Original file: dj_91.smt2
(set-logic HORN)
(declare-fun invariant
             (Real
              Real
              Real
              Real
              Real
              Real
              Real
              Real
              Real
              Real
              Real
              Real
              Real
              Real
              Real
              Real
              Real
              Real
              Real
              Real
              Real
              Real
              Real
              Real
              Real
              Real
              Real
              Real
              Real
              Real
              Real
              Real
              Real
              Real
              Real
              Real
              Real
              Real
              Real
              Real
              Real
              Real
              Bool
              Bool
              Bool
              Bool
              Bool
              Bool
              Bool
              Bool
              Bool
              Bool
              Real
              Real
              Real
              Real
              Real
              Real)
             Bool)


(assert (forall ((state.round Real)
         (state.cx!0!0 Real)
         (state.cx!0!1 Real)
         (state.cx!0!2 Real)
         (state.cx!0!3 Real)
         (state.cx!0!4 Real)
         (state.cx!0!5 Real)
         (state.cx!0!6 Real)
         (state.cx!1!0 Real)
         (state.cx!1!1 Real)
         (state.cx!1!2 Real)
         (state.cx!1!3 Real)
         (state.cx!1!4 Real)
         (state.cx!1!5 Real)
         (state.cx!1!6 Real)
         (state.cx!2!0 Real)
         (state.cx!2!1 Real)
         (state.cx!2!2 Real)
         (state.cx!2!3 Real)
         (state.cx!2!4 Real)
         (state.cx!2!5 Real)
         (state.cx!2!6 Real)
         (state.cy!0!0 Real)
         (state.cy!0!1 Real)
         (state.cy!0!2 Real)
         (state.cy!0!3 Real)
         (state.cy!0!4 Real)
         (state.cy!0!5 Real)
         (state.cy!0!6 Real)
         (state.cy!1!0 Real)
         (state.cy!1!1 Real)
         (state.cy!1!2 Real)
         (state.cy!1!3 Real)
         (state.cy!1!4 Real)
         (state.cy!1!5 Real)
         (state.cy!1!6 Real)
         (state.cy!2!0 Real)
         (state.cy!2!1 Real)
         (state.cy!2!2 Real)
         (state.cy!2!3 Real)
         (state.cy!2!4 Real)
         (state.cy!2!5 Real)
         (state.cy!2!6 Real)
         (state.source Real)
         (state.val Real)
         (state.good_p!0 Bool)
         (state.good_p!1 Bool)
         (state.good_p!2 Bool)
         (state.good_r!0 Bool)
         (state.good_r!1 Bool)
         (state.good_r!2 Bool)
         (state.good_r!3 Bool)
         (state.good_r!4 Bool)
         (state.good_r!5 Bool)
         (state.good_r!6 Bool)
         (state.v!0 Real)
         (state.v!1 Real)
         (state.v!2 Real))
  (let ((a!1 (and (= state.round (+ 0 0))
                  (= state.cx!0!0 (+ 0 0))
                  (= state.cx!0!1 (+ 0 0))
                  (= state.cx!0!2 (+ 0 0))
                  (= state.cx!0!3 (+ 0 0))
                  (= state.cx!0!4 (+ 0 0))
                  (= state.cx!0!5 (+ 0 0))
                  (= state.cx!0!6 (+ 0 0))
                  (= state.cx!1!0 (+ 0 0))
                  (= state.cx!1!1 (+ 0 0))
                  (= state.cx!1!2 (+ 0 0))
                  (= state.cx!1!3 (+ 0 0))
                  (= state.cx!1!4 (+ 0 0))
                  (= state.cx!1!5 (+ 0 0))
                  (= state.cx!1!6 (+ 0 0))
                  (= state.cx!2!0 (+ 0 0))
                  (= state.cx!2!1 (+ 0 0))
                  (= state.cx!2!2 (+ 0 0))
                  (= state.cx!2!3 (+ 0 0))
                  (= state.cx!2!4 (+ 0 0))
                  (= state.cx!2!5 (+ 0 0))
                  (= state.cx!2!6 (+ 0 0))
                  (= state.cy!0!0 (+ 0 0))
                  (= state.cy!0!1 (+ 0 0))
                  (= state.cy!0!2 (+ 0 0))
                  (= state.cy!0!3 (+ 0 0))
                  (= state.cy!0!4 (+ 0 0))
                  (= state.cy!0!5 (+ 0 0))
                  (= state.cy!0!6 (+ 0 0))
                  (= state.cy!1!0 (+ 0 0))
                  (= state.cy!1!1 (+ 0 0))
                  (= state.cy!1!2 (+ 0 0))
                  (= state.cy!1!3 (+ 0 0))
                  (= state.cy!1!4 (+ 0 0))
                  (= state.cy!1!5 (+ 0 0))
                  (= state.cy!1!6 (+ 0 0))
                  (= state.cy!2!0 (+ 0 0))
                  (= state.cy!2!1 (+ 0 0))
                  (= state.cy!2!2 (+ 0 0))
                  (= state.cy!2!3 (+ 0 0))
                  (= state.cy!2!4 (+ 0 0))
                  (= state.cy!2!5 (+ 0 0))
                  (= state.cy!2!6 (+ 0 0))
                  (or (= state.source (+ 0 1))
                      (= state.source (+ 0 2))
                      (= state.source (+ 0 3)))
                  (not (= state.val (+ 0 0)))
                  state.good_p!0
                  state.good_p!1
                  state.good_p!2
                  (or (and (not state.good_r!0)
                           state.good_r!1
                           state.good_r!2
                           state.good_r!3
                           state.good_r!4
                           state.good_r!5
                           state.good_r!6)
                      (and (not state.good_r!1)
                           state.good_r!0
                           state.good_r!2
                           state.good_r!3
                           state.good_r!4
                           state.good_r!5
                           state.good_r!6)
                      (and (not state.good_r!2)
                           state.good_r!0
                           state.good_r!1
                           state.good_r!3
                           state.good_r!4
                           state.good_r!5
                           state.good_r!6)
                      (and (not state.good_r!3)
                           state.good_r!0
                           state.good_r!1
                           state.good_r!2
                           state.good_r!4
                           state.good_r!5
                           state.good_r!6)
                      (and (not state.good_r!4)
                           state.good_r!0
                           state.good_r!1
                           state.good_r!2
                           state.good_r!3
                           state.good_r!5
                           state.good_r!6)
                      (and (not state.good_r!5)
                           state.good_r!0
                           state.good_r!1
                           state.good_r!2
                           state.good_r!3
                           state.good_r!4
                           state.good_r!6)
                      (and (not state.good_r!6)
                           state.good_r!0
                           state.good_r!1
                           state.good_r!2
                           state.good_r!3
                           state.good_r!4
                           state.good_r!5)))))
    (=> a!1
        (invariant state.cx!0!0
                   state.cx!0!1
                   state.cx!0!2
                   state.cx!0!3
                   state.cx!0!4
                   state.cx!0!5
                   state.cx!0!6
                   state.cx!1!0
                   state.cx!1!1
                   state.cx!1!2
                   state.cx!1!3
                   state.cx!1!4
                   state.cx!1!5
                   state.cx!1!6
                   state.cx!2!0
                   state.cx!2!1
                   state.cx!2!2
                   state.cx!2!3
                   state.cx!2!4
                   state.cx!2!5
                   state.cx!2!6
                   state.cy!0!0
                   state.cy!0!1
                   state.cy!0!2
                   state.cy!0!3
                   state.cy!0!4
                   state.cy!0!5
                   state.cy!0!6
                   state.cy!1!0
                   state.cy!1!1
                   state.cy!1!2
                   state.cy!1!3
                   state.cy!1!4
                   state.cy!1!5
                   state.cy!1!6
                   state.cy!2!0
                   state.cy!2!1
                   state.cy!2!2
                   state.cy!2!3
                   state.cy!2!4
                   state.cy!2!5
                   state.cy!2!6
                   state.good_p!0
                   state.good_p!1
                   state.good_p!2
                   state.good_r!0
                   state.good_r!1
                   state.good_r!2
                   state.good_r!3
                   state.good_r!4
                   state.good_r!5
                   state.good_r!6
                   state.v!0
                   state.v!1
                   state.v!2
                   state.round
                   state.source
                   state.val)))))
(assert (forall ((state.cx!0!0 Real)
         (state.cx!0!1 Real)
         (state.cx!0!2 Real)
         (state.cx!0!3 Real)
         (state.cx!0!4 Real)
         (state.cx!0!5 Real)
         (state.cx!0!6 Real)
         (state.cx!1!0 Real)
         (state.cx!1!1 Real)
         (state.cx!1!2 Real)
         (state.cx!1!3 Real)
         (state.cx!1!4 Real)
         (state.cx!1!5 Real)
         (state.cx!1!6 Real)
         (state.cx!2!0 Real)
         (state.cx!2!1 Real)
         (state.cx!2!2 Real)
         (state.cx!2!3 Real)
         (state.cx!2!4 Real)
         (state.cx!2!5 Real)
         (state.cx!2!6 Real)
         (state.cy!0!0 Real)
         (state.cy!0!1 Real)
         (state.cy!0!2 Real)
         (state.cy!0!3 Real)
         (state.cy!0!4 Real)
         (state.cy!0!5 Real)
         (state.cy!0!6 Real)
         (state.cy!1!0 Real)
         (state.cy!1!1 Real)
         (state.cy!1!2 Real)
         (state.cy!1!3 Real)
         (state.cy!1!4 Real)
         (state.cy!1!5 Real)
         (state.cy!1!6 Real)
         (state.cy!2!0 Real)
         (state.cy!2!1 Real)
         (state.cy!2!2 Real)
         (state.cy!2!3 Real)
         (state.cy!2!4 Real)
         (state.cy!2!5 Real)
         (state.cy!2!6 Real)
         (state.good_p!0 Bool)
         (state.good_p!1 Bool)
         (state.good_p!2 Bool)
         (state.good_r!0 Bool)
         (state.good_r!1 Bool)
         (state.good_r!2 Bool)
         (state.good_r!3 Bool)
         (state.good_r!4 Bool)
         (state.good_r!5 Bool)
         (state.good_r!6 Bool)
         (state.v!0 Real)
         (state.v!1 Real)
         (state.v!2 Real)
         (state.round Real)
         (state.source Real)
         (state.val Real)
         (next.source Real)
         (next.val Real)
         (next.cx!0!0 Real)
         (next.cx!0!1 Real)
         (next.cx!0!2 Real)
         (next.cx!0!3 Real)
         (next.cx!0!4 Real)
         (next.cx!0!5 Real)
         (next.cx!0!6 Real)
         (next.cx!1!0 Real)
         (next.cx!1!1 Real)
         (next.cx!1!2 Real)
         (next.cx!1!3 Real)
         (next.cx!1!4 Real)
         (next.cx!1!5 Real)
         (next.cx!1!6 Real)
         (next.cx!2!0 Real)
         (next.cx!2!1 Real)
         (next.cx!2!2 Real)
         (next.cx!2!3 Real)
         (next.cx!2!4 Real)
         (next.cx!2!5 Real)
         (next.cx!2!6 Real)
         (next.round Real)
         (next.cy!0!0 Real)
         (next.cy!0!1 Real)
         (next.cy!0!2 Real)
         (next.cy!0!3 Real)
         (next.cy!0!4 Real)
         (next.cy!0!5 Real)
         (next.cy!0!6 Real)
         (next.cy!1!0 Real)
         (next.cy!1!1 Real)
         (next.cy!1!2 Real)
         (next.cy!1!3 Real)
         (next.cy!1!4 Real)
         (next.cy!1!5 Real)
         (next.cy!1!6 Real)
         (next.cy!2!0 Real)
         (next.cy!2!1 Real)
         (next.cy!2!2 Real)
         (next.cy!2!3 Real)
         (next.cy!2!4 Real)
         (next.cy!2!5 Real)
         (next.cy!2!6 Real)
         (next.good_p!0 Bool)
         (next.good_p!1 Bool)
         (next.good_p!2 Bool)
         (next.good_r!0 Bool)
         (next.good_r!1 Bool)
         (next.good_r!2 Bool)
         (next.good_r!3 Bool)
         (next.good_r!4 Bool)
         (next.good_r!5 Bool)
         (next.good_r!6 Bool)
         (next.v!0 Real)
         (next.v!1 Real)
         (next.v!2 Real))
  (let ((a!1 (or (not state.good_p!0)
                 (not (= (+ 0 1) state.source))
                 (and (= next.cx!0!0 state.val)
                      (= next.cx!0!1 state.val)
                      (= next.cx!0!2 state.val)
                      (= next.cx!0!3 state.val)
                      (= next.cx!0!4 state.val)
                      (= next.cx!0!5 state.val)
                      (= next.cx!0!6 state.val))))
        (a!2 (or (not state.good_p!1)
                 (not (= (+ 0 2) state.source))
                 (and (= next.cx!1!0 state.val)
                      (= next.cx!1!1 state.val)
                      (= next.cx!1!2 state.val)
                      (= next.cx!1!3 state.val)
                      (= next.cx!1!4 state.val)
                      (= next.cx!1!5 state.val)
                      (= next.cx!1!6 state.val))))
        (a!3 (or (not state.good_p!2)
                 (not (= (+ 0 3) state.source))
                 (and (= next.cx!2!0 state.val)
                      (= next.cx!2!1 state.val)
                      (= next.cx!2!2 state.val)
                      (= next.cx!2!3 state.val)
                      (= next.cx!2!4 state.val)
                      (= next.cx!2!5 state.val)
                      (= next.cx!2!6 state.val))))
        (a!4 (or (not state.good_p!0)
                 (= (+ 0 1) state.source)
                 (and (= next.cx!0!0 (+ 0 0))
                      (= next.cx!0!1 (+ 0 0))
                      (= next.cx!0!2 (+ 0 0))
                      (= next.cx!0!3 (+ 0 0))
                      (= next.cx!0!4 (+ 0 0))
                      (= next.cx!0!5 (+ 0 0))
                      (= next.cx!0!6 (+ 0 0)))))
        (a!5 (or (not state.good_p!1)
                 (= (+ 0 2) state.source)
                 (and (= next.cx!1!0 (+ 0 0))
                      (= next.cx!1!1 (+ 0 0))
                      (= next.cx!1!2 (+ 0 0))
                      (= next.cx!1!3 (+ 0 0))
                      (= next.cx!1!4 (+ 0 0))
                      (= next.cx!1!5 (+ 0 0))
                      (= next.cx!1!6 (+ 0 0)))))
        (a!6 (or (not state.good_p!2)
                 (= (+ 0 3) state.source)
                 (and (= next.cx!2!0 (+ 0 0))
                      (= next.cx!2!1 (+ 0 0))
                      (= next.cx!2!2 (+ 0 0))
                      (= next.cx!2!3 (+ 0 0))
                      (= next.cx!2!4 (+ 0 0))
                      (= next.cx!2!5 (+ 0 0))
                      (= next.cx!2!6 (+ 0 0)))))
        (a!7 (and (= next.cy!0!0 state.cy!0!0)
                  (= next.cy!0!1 state.cy!0!1)
                  (= next.cy!0!2 state.cy!0!2)
                  (= next.cy!0!3 state.cy!0!3)
                  (= next.cy!0!4 state.cy!0!4)
                  (= next.cy!0!5 state.cy!0!5)
                  (= next.cy!0!6 state.cy!0!6)
                  (= next.cy!1!0 state.cy!1!0)
                  (= next.cy!1!1 state.cy!1!1)
                  (= next.cy!1!2 state.cy!1!2)
                  (= next.cy!1!3 state.cy!1!3)
                  (= next.cy!1!4 state.cy!1!4)
                  (= next.cy!1!5 state.cy!1!5)
                  (= next.cy!1!6 state.cy!1!6)
                  (= next.cy!2!0 state.cy!2!0)
                  (= next.cy!2!1 state.cy!2!1)
                  (= next.cy!2!2 state.cy!2!2)
                  (= next.cy!2!3 state.cy!2!3)
                  (= next.cy!2!4 state.cy!2!4)
                  (= next.cy!2!5 state.cy!2!5)
                  (= next.cy!2!6 state.cy!2!6)))
        (a!8 (and (= next.good_p!0 state.good_p!0)
                  (= next.good_p!1 state.good_p!1)
                  (= next.good_p!2 state.good_p!2)))
        (a!9 (and (= next.good_r!0 state.good_r!0)
                  (= next.good_r!1 state.good_r!1)
                  (= next.good_r!2 state.good_r!2)
                  (= next.good_r!3 state.good_r!3)
                  (= next.good_r!4 state.good_r!4)
                  (= next.good_r!5 state.good_r!5)
                  (= next.good_r!6 state.good_r!6)))
        (a!10 (and (= next.v!0 state.v!0)
                   (= next.v!1 state.v!1)
                   (= next.v!2 state.v!2)))
        (a!11 (ite (= state.source (+ 0 3))
                   state.cx!2!0
                   (ite (= state.source (+ 0 2)) state.cx!1!0 state.cx!0!0)))
        (a!12 (ite (= state.source (+ 0 3))
                   state.cx!2!1
                   (ite (= state.source (+ 0 2)) state.cx!1!1 state.cx!0!1)))
        (a!13 (ite (= state.source (+ 0 3))
                   state.cx!2!2
                   (ite (= state.source (+ 0 2)) state.cx!1!2 state.cx!0!2)))
        (a!14 (ite (= state.source (+ 0 3))
                   state.cx!2!3
                   (ite (= state.source (+ 0 2)) state.cx!1!3 state.cx!0!3)))
        (a!15 (ite (= state.source (+ 0 3))
                   state.cx!2!4
                   (ite (= state.source (+ 0 2)) state.cx!1!4 state.cx!0!4)))
        (a!16 (ite (= state.source (+ 0 3))
                   state.cx!2!5
                   (ite (= state.source (+ 0 2)) state.cx!1!5 state.cx!0!5)))
        (a!17 (ite (= state.source (+ 0 3))
                   state.cx!2!6
                   (ite (= state.source (+ 0 2)) state.cx!1!6 state.cx!0!6)))
        (a!18 (and (= next.cx!0!0 state.cx!0!0)
                   (= next.cx!0!1 state.cx!0!1)
                   (= next.cx!0!2 state.cx!0!2)
                   (= next.cx!0!3 state.cx!0!3)
                   (= next.cx!0!4 state.cx!0!4)
                   (= next.cx!0!5 state.cx!0!5)
                   (= next.cx!0!6 state.cx!0!6)
                   (= next.cx!1!0 state.cx!1!0)
                   (= next.cx!1!1 state.cx!1!1)
                   (= next.cx!1!2 state.cx!1!2)
                   (= next.cx!1!3 state.cx!1!3)
                   (= next.cx!1!4 state.cx!1!4)
                   (= next.cx!1!5 state.cx!1!5)
                   (= next.cx!1!6 state.cx!1!6)
                   (= next.cx!2!0 state.cx!2!0)
                   (= next.cx!2!1 state.cx!2!1)
                   (= next.cx!2!2 state.cx!2!2)
                   (= next.cx!2!3 state.cx!2!3)
                   (= next.cx!2!4 state.cx!2!4)
                   (= next.cx!2!5 state.cx!2!5)
                   (= next.cx!2!6 state.cx!2!6)))
        (a!19 (ite (= state.cy!0!4 state.cy!0!6)
                   (+ (ite (= state.cy!0!5 state.cy!0!6) 2 0) 1)
                   (- (ite (= state.cy!0!5 state.cy!0!6) 2 0) 1)))
        (a!21 (ite (= (ite (= state.cy!0!5 state.cy!0!6) 2 0) 0)
                   state.cy!0!4
                   state.cy!0!6))
        (a!36 (ite (= state.cy!1!4 state.cy!1!6)
                   (+ (ite (= state.cy!1!5 state.cy!1!6) 2 0) 1)
                   (- (ite (= state.cy!1!5 state.cy!1!6) 2 0) 1)))
        (a!38 (ite (= (ite (= state.cy!1!5 state.cy!1!6) 2 0) 0)
                   state.cy!1!4
                   state.cy!1!6))
        (a!53 (ite (= state.cy!2!4 state.cy!2!6)
                   (+ (ite (= state.cy!2!5 state.cy!2!6) 2 0) 1)
                   (- (ite (= state.cy!2!5 state.cy!2!6) 2 0) 1)))
        (a!55 (ite (= (ite (= state.cy!2!5 state.cy!2!6) 2 0) 0)
                   state.cy!2!4
                   state.cy!2!6)))
  (let ((a!20 (ite (= (ite (= state.cy!0!5 state.cy!0!6) 2 0) 0) 1 a!19))
        (a!37 (ite (= (ite (= state.cy!1!5 state.cy!1!6) 2 0) 0) 1 a!36))
        (a!54 (ite (= (ite (= state.cy!2!5 state.cy!2!6) 2 0) 0) 1 a!53)))
  (let ((a!22 (ite (= a!20 0)
                   1
                   (ite (= state.cy!0!3 a!21) (+ a!20 1) (- a!20 1))))
        (a!39 (ite (= a!37 0)
                   1
                   (ite (= state.cy!1!3 a!38) (+ a!37 1) (- a!37 1))))
        (a!56 (ite (= a!54 0)
                   1
                   (ite (= state.cy!2!3 a!55) (+ a!54 1) (- a!54 1)))))
  (let ((a!23 (ite (= state.cy!0!2 (ite (= a!20 0) state.cy!0!3 a!21))
                   (+ a!22 1)
                   (- a!22 1)))
        (a!24 (ite (= a!22 0) state.cy!0!2 (ite (= a!20 0) state.cy!0!3 a!21)))
        (a!40 (ite (= state.cy!1!2 (ite (= a!37 0) state.cy!1!3 a!38))
                   (+ a!39 1)
                   (- a!39 1)))
        (a!41 (ite (= a!39 0) state.cy!1!2 (ite (= a!37 0) state.cy!1!3 a!38)))
        (a!57 (ite (= state.cy!2!2 (ite (= a!54 0) state.cy!2!3 a!55))
                   (+ a!56 1)
                   (- a!56 1)))
        (a!58 (ite (= a!56 0) state.cy!2!2 (ite (= a!54 0) state.cy!2!3 a!55))))
  (let ((a!25 (ite (= state.cy!0!1 a!24)
                   (+ (ite (= a!22 0) 1 a!23) 1)
                   (- (ite (= a!22 0) 1 a!23) 1)))
        (a!27 (ite (= (ite (= a!22 0) 1 a!23) 0) state.cy!0!1 a!24))
        (a!42 (ite (= state.cy!1!1 a!41)
                   (+ (ite (= a!39 0) 1 a!40) 1)
                   (- (ite (= a!39 0) 1 a!40) 1)))
        (a!44 (ite (= (ite (= a!39 0) 1 a!40) 0) state.cy!1!1 a!41))
        (a!59 (ite (= state.cy!2!1 a!58)
                   (+ (ite (= a!56 0) 1 a!57) 1)
                   (- (ite (= a!56 0) 1 a!57) 1)))
        (a!61 (ite (= (ite (= a!56 0) 1 a!57) 0) state.cy!2!1 a!58)))
  (let ((a!26 (ite (= (ite (= a!22 0) 1 a!23) 0) 1 a!25))
        (a!43 (ite (= (ite (= a!39 0) 1 a!40) 0) 1 a!42))
        (a!60 (ite (= (ite (= a!56 0) 1 a!57) 0) 1 a!59)))
  (let ((a!28 (ite (= state.cy!0!6 (ite (= a!26 0) state.cy!0!0 a!27)) 3 4))
        (a!45 (ite (= state.cy!1!6 (ite (= a!43 0) state.cy!1!0 a!44)) 3 4))
        (a!62 (ite (= state.cy!2!6 (ite (= a!60 0) state.cy!2!0 a!61)) 3 4)))
  (let ((a!29 (ite (= state.cy!0!5 (ite (= a!26 0) state.cy!0!0 a!27))
                   (- a!28 1)
                   a!28))
        (a!46 (ite (= state.cy!1!5 (ite (= a!43 0) state.cy!1!0 a!44))
                   (- a!45 1)
                   a!45))
        (a!63 (ite (= state.cy!2!5 (ite (= a!60 0) state.cy!2!0 a!61))
                   (- a!62 1)
                   a!62)))
  (let ((a!30 (ite (= state.cy!0!4 (ite (= a!26 0) state.cy!0!0 a!27))
                   (- a!29 1)
                   a!29))
        (a!47 (ite (= state.cy!1!4 (ite (= a!43 0) state.cy!1!0 a!44))
                   (- a!46 1)
                   a!46))
        (a!64 (ite (= state.cy!2!4 (ite (= a!60 0) state.cy!2!0 a!61))
                   (- a!63 1)
                   a!63)))
  (let ((a!31 (ite (= state.cy!0!3 (ite (= a!26 0) state.cy!0!0 a!27))
                   (- a!30 1)
                   a!30))
        (a!48 (ite (= state.cy!1!3 (ite (= a!43 0) state.cy!1!0 a!44))
                   (- a!47 1)
                   a!47))
        (a!65 (ite (= state.cy!2!3 (ite (= a!60 0) state.cy!2!0 a!61))
                   (- a!64 1)
                   a!64)))
  (let ((a!32 (ite (= state.cy!0!2 (ite (= a!26 0) state.cy!0!0 a!27))
                   (- a!31 1)
                   a!31))
        (a!49 (ite (= state.cy!1!2 (ite (= a!43 0) state.cy!1!0 a!44))
                   (- a!48 1)
                   a!48))
        (a!66 (ite (= state.cy!2!2 (ite (= a!60 0) state.cy!2!0 a!61))
                   (- a!65 1)
                   a!65)))
  (let ((a!33 (ite (= state.cy!0!1 (ite (= a!26 0) state.cy!0!0 a!27))
                   (- a!32 1)
                   a!32))
        (a!50 (ite (= state.cy!1!1 (ite (= a!43 0) state.cy!1!0 a!44))
                   (- a!49 1)
                   a!49))
        (a!67 (ite (= state.cy!2!1 (ite (= a!60 0) state.cy!2!0 a!61))
                   (- a!66 1)
                   a!66)))
  (let ((a!34 (ite (= state.cy!0!0 (ite (= a!26 0) state.cy!0!0 a!27))
                   (- a!33 1)
                   a!33))
        (a!51 (ite (= state.cy!1!0 (ite (= a!43 0) state.cy!1!0 a!44))
                   (- a!50 1)
                   a!50))
        (a!68 (ite (= state.cy!2!0 (ite (= a!60 0) state.cy!2!0 a!61))
                   (- a!67 1)
                   a!67)))
  (let ((a!35 (= next.v!0
                 (ite (or (= a!28 0)
                          (= a!29 0)
                          (= a!30 0)
                          (= a!31 0)
                          (= a!32 0)
                          (= a!33 0)
                          (= a!34 0))
                      (ite (= a!26 0) state.cy!0!0 a!27)
                      (+ 0 0))))
        (a!52 (= next.v!1
                 (ite (or (= a!45 0)
                          (= a!46 0)
                          (= a!47 0)
                          (= a!48 0)
                          (= a!49 0)
                          (= a!50 0)
                          (= a!51 0))
                      (ite (= a!43 0) state.cy!1!0 a!44)
                      (+ 0 0))))
        (a!69 (= next.v!2
                 (ite (or (= a!62 0)
                          (= a!63 0)
                          (= a!64 0)
                          (= a!65 0)
                          (= a!66 0)
                          (= a!67 0)
                          (= a!68 0))
                      (ite (= a!60 0) state.cy!2!0 a!61)
                      (+ 0 0)))))
  (let ((a!70 (or (and (= state.round (+ 0 0))
                       a!1
                       a!2
                       a!3
                       a!4
                       a!5
                       a!6
                       (= next.round (+ 0 1))
                       a!7
                       a!8
                       a!9
                       a!10)
                  (and (= state.round (+ 0 1))
                       (or (not state.good_r!0) (= next.cy!0!0 a!11))
                       (or (not state.good_r!0) (= next.cy!1!0 a!11))
                       (or (not state.good_r!0) (= next.cy!2!0 a!11))
                       (or (not state.good_r!1) (= next.cy!0!1 a!12))
                       (or (not state.good_r!1) (= next.cy!1!1 a!12))
                       (or (not state.good_r!1) (= next.cy!2!1 a!12))
                       (or (not state.good_r!2) (= next.cy!0!2 a!13))
                       (or (not state.good_r!2) (= next.cy!1!2 a!13))
                       (or (not state.good_r!2) (= next.cy!2!2 a!13))
                       (or (not state.good_r!3) (= next.cy!0!3 a!14))
                       (or (not state.good_r!3) (= next.cy!1!3 a!14))
                       (or (not state.good_r!3) (= next.cy!2!3 a!14))
                       (or (not state.good_r!4) (= next.cy!0!4 a!15))
                       (or (not state.good_r!4) (= next.cy!1!4 a!15))
                       (or (not state.good_r!4) (= next.cy!2!4 a!15))
                       (or (not state.good_r!5) (= next.cy!0!5 a!16))
                       (or (not state.good_r!5) (= next.cy!1!5 a!16))
                       (or (not state.good_r!5) (= next.cy!2!5 a!16))
                       (or (not state.good_r!6) (= next.cy!0!6 a!17))
                       (or (not state.good_r!6) (= next.cy!1!6 a!17))
                       (or (not state.good_r!6) (= next.cy!2!6 a!17))
                       (= next.round (+ 0 2))
                       a!18
                       a!8
                       a!9
                       a!10)
                  (and (= state.round (+ 0 2))
                       (or (not state.good_p!0) a!35)
                       (or (not state.good_p!1) a!52)
                       (or (not state.good_p!2) a!69)
                       (= next.round (+ 0 3))
                       a!18
                       a!7
                       a!8
                       a!9)
                  (and (= state.round (+ 0 3))
                       a!18
                       a!7
                       a!8
                       a!9
                       (= next.round state.round)
                       a!10))))
    (=> (and (invariant state.cx!0!0
                        state.cx!0!1
                        state.cx!0!2
                        state.cx!0!3
                        state.cx!0!4
                        state.cx!0!5
                        state.cx!0!6
                        state.cx!1!0
                        state.cx!1!1
                        state.cx!1!2
                        state.cx!1!3
                        state.cx!1!4
                        state.cx!1!5
                        state.cx!1!6
                        state.cx!2!0
                        state.cx!2!1
                        state.cx!2!2
                        state.cx!2!3
                        state.cx!2!4
                        state.cx!2!5
                        state.cx!2!6
                        state.cy!0!0
                        state.cy!0!1
                        state.cy!0!2
                        state.cy!0!3
                        state.cy!0!4
                        state.cy!0!5
                        state.cy!0!6
                        state.cy!1!0
                        state.cy!1!1
                        state.cy!1!2
                        state.cy!1!3
                        state.cy!1!4
                        state.cy!1!5
                        state.cy!1!6
                        state.cy!2!0
                        state.cy!2!1
                        state.cy!2!2
                        state.cy!2!3
                        state.cy!2!4
                        state.cy!2!5
                        state.cy!2!6
                        state.good_p!0
                        state.good_p!1
                        state.good_p!2
                        state.good_r!0
                        state.good_r!1
                        state.good_r!2
                        state.good_r!3
                        state.good_r!4
                        state.good_r!5
                        state.good_r!6
                        state.v!0
                        state.v!1
                        state.v!2
                        state.round
                        state.source
                        state.val)
             (= next.source state.source)
             (= next.val state.val)
             a!70)
        (invariant next.cx!0!0
                   next.cx!0!1
                   next.cx!0!2
                   next.cx!0!3
                   next.cx!0!4
                   next.cx!0!5
                   next.cx!0!6
                   next.cx!1!0
                   next.cx!1!1
                   next.cx!1!2
                   next.cx!1!3
                   next.cx!1!4
                   next.cx!1!5
                   next.cx!1!6
                   next.cx!2!0
                   next.cx!2!1
                   next.cx!2!2
                   next.cx!2!3
                   next.cx!2!4
                   next.cx!2!5
                   next.cx!2!6
                   next.cy!0!0
                   next.cy!0!1
                   next.cy!0!2
                   next.cy!0!3
                   next.cy!0!4
                   next.cy!0!5
                   next.cy!0!6
                   next.cy!1!0
                   next.cy!1!1
                   next.cy!1!2
                   next.cy!1!3
                   next.cy!1!4
                   next.cy!1!5
                   next.cy!1!6
                   next.cy!2!0
                   next.cy!2!1
                   next.cy!2!2
                   next.cy!2!3
                   next.cy!2!4
                   next.cy!2!5
                   next.cy!2!6
                   next.good_p!0
                   next.good_p!1
                   next.good_p!2
                   next.good_r!0
                   next.good_r!1
                   next.good_r!2
                   next.good_r!3
                   next.good_r!4
                   next.good_r!5
                   next.good_r!6
                   next.v!0
                   next.v!1
                   next.v!2
                   next.round
                   next.source
                   next.val)))))))))))))))))))
(assert (forall ((state.cx!0!0 Real)
         (state.cx!0!1 Real)
         (state.cx!0!2 Real)
         (state.cx!0!3 Real)
         (state.cx!0!4 Real)
         (state.cx!0!5 Real)
         (state.cx!0!6 Real)
         (state.cx!1!0 Real)
         (state.cx!1!1 Real)
         (state.cx!1!2 Real)
         (state.cx!1!3 Real)
         (state.cx!1!4 Real)
         (state.cx!1!5 Real)
         (state.cx!1!6 Real)
         (state.cx!2!0 Real)
         (state.cx!2!1 Real)
         (state.cx!2!2 Real)
         (state.cx!2!3 Real)
         (state.cx!2!4 Real)
         (state.cx!2!5 Real)
         (state.cx!2!6 Real)
         (state.cy!0!0 Real)
         (state.cy!0!1 Real)
         (state.cy!0!2 Real)
         (state.cy!0!3 Real)
         (state.cy!0!4 Real)
         (state.cy!0!5 Real)
         (state.cy!0!6 Real)
         (state.cy!1!0 Real)
         (state.cy!1!1 Real)
         (state.cy!1!2 Real)
         (state.cy!1!3 Real)
         (state.cy!1!4 Real)
         (state.cy!1!5 Real)
         (state.cy!1!6 Real)
         (state.cy!2!0 Real)
         (state.cy!2!1 Real)
         (state.cy!2!2 Real)
         (state.cy!2!3 Real)
         (state.cy!2!4 Real)
         (state.cy!2!5 Real)
         (state.cy!2!6 Real)
         (state.good_p!0 Bool)
         (state.good_p!1 Bool)
         (state.good_p!2 Bool)
         (state.good_r!0 Bool)
         (state.good_r!1 Bool)
         (state.good_r!2 Bool)
         (state.good_r!3 Bool)
         (state.good_r!4 Bool)
         (state.good_r!5 Bool)
         (state.good_r!6 Bool)
         (state.v!0 Real)
         (state.v!1 Real)
         (state.v!2 Real)
         (state.round Real)
         (state.source Real)
         (state.val Real))
  (let ((a!1 (ite (= state.source (+ 0 3))
                  state.good_p!2
                  (ite (= state.source (+ 0 2))
                       state.good_p!1
                       state.good_p!0))))
  (let ((a!2 (or (not a!1)
                 (< state.round (+ 0 3))
                 (and (or (not state.good_p!0) (= state.v!0 state.val))
                      (or (not state.good_p!1) (= state.v!1 state.val))
                      (or (not state.good_p!2) (= state.v!2 state.val))))))
    (=> (and (invariant state.cx!0!0
                        state.cx!0!1
                        state.cx!0!2
                        state.cx!0!3
                        state.cx!0!4
                        state.cx!0!5
                        state.cx!0!6
                        state.cx!1!0
                        state.cx!1!1
                        state.cx!1!2
                        state.cx!1!3
                        state.cx!1!4
                        state.cx!1!5
                        state.cx!1!6
                        state.cx!2!0
                        state.cx!2!1
                        state.cx!2!2
                        state.cx!2!3
                        state.cx!2!4
                        state.cx!2!5
                        state.cx!2!6
                        state.cy!0!0
                        state.cy!0!1
                        state.cy!0!2
                        state.cy!0!3
                        state.cy!0!4
                        state.cy!0!5
                        state.cy!0!6
                        state.cy!1!0
                        state.cy!1!1
                        state.cy!1!2
                        state.cy!1!3
                        state.cy!1!4
                        state.cy!1!5
                        state.cy!1!6
                        state.cy!2!0
                        state.cy!2!1
                        state.cy!2!2
                        state.cy!2!3
                        state.cy!2!4
                        state.cy!2!5
                        state.cy!2!6
                        state.good_p!0
                        state.good_p!1
                        state.good_p!2
                        state.good_r!0
                        state.good_r!1
                        state.good_r!2
                        state.good_r!3
                        state.good_r!4
                        state.good_r!5
                        state.good_r!6
                        state.v!0
                        state.v!1
                        state.v!2
                        state.round
                        state.source
                        state.val)
             (not a!2))
        false)))))
(check-sat)
